\ LP format - for model browsing. Use MPS format to capture full model detail.
Maximize
  26.6548768860657 pax_1_2 + 11.4368112370997 pax_1_3
   + 29.05796431758555 pax_1_4 + 55.65808444219424 pax_1_5
   + 20.71765687021139 pax_1_6 + 100.4446424705951 pax_1_7
   + 56.76756310416534 pax_1_8 + 42.15222002781556 pax_1_9
   + 82.68978166646311 pax_1_10 + 83.83292809810365 pax_1_11
   + 66.83705666480282 pax_1_12 + 92.51525417778623 pax_1_13
   + 39.34192011394445 pax_1_14 + 28.1695669651948 pax_2_3
   + 15.51495809238085 pax_2_4 + 54.92695431366371 pax_2_5
   + 9.875561389051754 pax_2_6 + 73.95782460896008 pax_2_7
   + 39.78386036424776 pax_2_8 + 39.51396353523602 pax_2_9
   + 57.92084215074354 pax_2_10 + 87.27218418809476 pax_2_11
   + 41.16099331061605 pax_2_12 + 65.86040321762657 pax_2_13
   + 65.03367475003759 pax_2_14 + 24.08662315650031 pax_3_4
   + 44.48372943253552 pax_3_5 + 26.1035312466097 pax_3_6
   + 101.2970479553878 pax_3_7 + 49.5870037251438 pax_3_8
   + 31.63334300977322 pax_3_9 + 86.07581780082113 pax_3_10
   + 72.41342871546114 pax_3_11 + 64.50191548598839 pax_3_12
   + 92.31251809410846 pax_3_13 + 37.92532458803709 pax_3_14
   + 39.49402136300494 pax_4_5 + 22.82109097415534 pax_4_6
   + 79.38251266635847 pax_4_7 + 28.15966911720864 pax_4_8
   + 24.1465163392801 pax_4_9 + 67.73980372237091 pax_4_10
   + 71.97846406779605 pax_4_11 + 40.71432850831091 pax_4_12
   + 69.56201143655504 pax_4_13 + 61.6559866690613 pax_4_14
   + 60.68350884928128 pax_5_6 + 106.0878709858244 pax_5_7
   + 34.27549122764639 pax_5_8 + 15.44256871414289 pax_5_9
   + 101.6661849806902 pax_5_10 + 32.66843904591439 pax_5_11
   + 64.16734298832201 pax_5_12 + 94.3293792667771 pax_5_13
   + 65.58257265768312 pax_5_14 + 80.47818692000175 pax_6_7
   + 49.17882514757983 pax_6_8 + 45.3185219780835 pax_6_9
   + 61.97999434224492 pax_6_10 + 92.28897804372285 pax_6_11
   + 50.34163142441572 pax_6_12 + 73.2975645438672 pax_6_13
   + 60.05871896195233 pax_6_14 + 72.01917208170376 pax_7_8
   + 95.57552162740613 pax_7_9 + 26.56048694193064 pax_7_10
   + 135.1931368205994 pax_7_11 + 41.97367504502429 pax_7_12
   + 12.2945160620884 pax_7_13 + 138.8884472488368 pax_7_14
   + 26.84832684402215 pax_8_9 + 70.34419386566438 pax_8_10
   + 63.67678841271201 pax_8_11 + 30.38289083422951 pax_8_12
   + 60.13398683523032 pax_8_13 + 84.0777839980243 pax_8_14
   + 88.54864557510452 pax_9_10 + 47.83360249994005 pax_9_11
   + 53.80232548220131 pax_9_12 + 84.34112430373956 pax_9_13
   + 59.80324356574251 pax_9_14 + 133.3389481666686 pax_10_11
   + 41.7336216364567 pax_10_12 + 29.11882213030047 pax_10_13
   + 122.0152714058922 pax_10_14 + 94.02396024462253 pax_11_12
   + 123.0605785238845 pax_11_13 + 80.57116907674278 pax_11_14
   + 30.53896858175713 pax_12_13 + 102.3196769742704 pax_12_14
   + 130.1742294472777 pax_13_14 - 5 x_1_2 - 7 x_1_3 - 2 x_1_4 - 3 x_1_5
   - 8 x_1_6 - 6 x_1_7 - 4 x_1_8 - 5 x_1_9 - 3 x_1_10 - 3 x_1_11 - 5 x_1_12
   - 6 x_1_13 - 4 x_1_14 - 8 x_2_3 - 5 x_2_4 - 8 x_2_5 - 7 x_2_6 - 9 x_2_7
   - 2 x_2_8 - 7 x_2_9 - 5 x_2_10 - 3 x_2_11 - 9 x_2_12 - 3 x_2_13
   - 8 x_2_14 - 8 x_3_4 - 8 x_3_5 - 3 x_3_6 - 7 x_3_7 - 7 x_3_8 - 8 x_3_9
   - 8 x_3_10 - 9 x_3_11 - 9 x_3_12 - 6 x_3_13 - 8 x_3_14 - 5 x_4_5
   - 3 x_4_6 - 7 x_4_7 - 6 x_4_8 - 4 x_4_9 - 9 x_4_10 - 6 x_4_11 - 2 x_4_12
   - 9 x_4_13 - 8 x_4_14 - 2 x_5_6 - 8 x_5_7 - 7 x_5_8 - 4 x_5_9 - 8 x_5_10
   - 2 x_5_11 - 6 x_5_12 - 3 x_5_13 - 8 x_5_14 - 3 x_6_7 - 7 x_6_8
   - 2 x_6_9 - 2 x_6_10 - 4 x_6_11 - 9 x_6_12 - 3 x_6_13 - 4 x_6_14
   - 9 x_7_8 - 9 x_7_9 - 8 x_7_10 - 8 x_7_11 - 8 x_7_12 - 8 x_7_13
   - 9 x_7_14 - 9 x_8_9 - 2 x_8_10 - 3 x_8_11 - 6 x_8_12 - 9 x_8_13
   - 2 x_8_14 - 9 x_9_10 - 9 x_9_11 - 8 x_9_12 - 2 x_9_13 - 5 x_9_14
   - 6 x_10_11 - 8 x_10_12 - 9 x_10_13 - 3 x_10_14 - 9 x_11_12 - 4 x_11_13
   - 9 x_11_14 - 9 x_12_13 - 3 x_12_14 - 9 x_13_14
   - 1.3652627941042852e+09 nt_1_2 - 5.8579347156424665e+08 nt_1_3
   - 1.4883489323467317e+09 nt_1_4 - 2.850807085129189e+09 nt_1_5
   - 1.0611583848922273e+09 nt_1_6 - 5.1447745873438835e+09 nt_1_7
   - 2.9076345821953487e+09 nt_1_8 - 2.1590367098247128e+09 nt_1_9
   - 4.2353706169562402e+09 nt_1_10 - 4.2939225771848688e+09 nt_1_11
   - 3.4233940423712001e+09 nt_1_12 - 4.7386313189862108e+09 nt_1_13
   - 2.0150931482362349e+09 nt_1_14 - 1.4428452199572775e+09 nt_2_3
   - 7.946761534917469e+08 nt_2_4 - 2.8133585999458556e+09 nt_2_5
   - 5.0582625434723085e+08 nt_2_6 - 3.7881197764709353e+09 nt_2_7
   - 2.0377293278567703e+09 nt_2_8 - 2.0239052122747886e+09 nt_2_9
   - 2.9667055349610839e+09 nt_2_10 - 4.470081274114213e+09 nt_2_11
   - 2.1082660773697541e+09 nt_2_12 - 3.3733698528068328e+09 nt_2_13
   - 3.3310248206969252e+09 nt_2_14 - 1.2337168380759461e+09 nt_3_4
   - 2.2784566215344691e+09 nt_3_5 - 1.337022870451349e+09 nt_3_6
   - 5.1884347962749624e+09 nt_3_7 - 2.5398463308018656e+09 nt_3_8
   - 1.6202598289605846e+09 nt_3_9 - 4.4088033877580585e+09 nt_3_10
   - 3.7090158188059196e+09 nt_3_11 - 3.3037881111923256e+09 nt_3_12
   - 4.7282471767802353e+09 nt_3_13 - 1.9425351253992596e+09 nt_3_14
   - 2.0228837742131131e+09 nt_4_5 - 1.1688962796962366e+09 nt_4_6
   - 4.0659722987708807e+09 nt_4_7 - 1.4423382521834266e+09 nt_4_8
   - 1.2367845668979268e+09 nt_4_9 - 3.4696327466598377e+09 nt_4_10
   - 3.6867369295525141e+09 nt_4_11 - 2.0853879061956849e+09 nt_4_12
   - 3.5629662257803493e+09 nt_4_13 - 3.1580196371893196e+09 nt_4_14
   - 3.1082093232601871e+09 nt_5_6 - 5.4338207518939266e+09 nt_5_7
   - 1.7555906606800482e+09 nt_5_8 - 7.9096836953839898e+08 nt_5_9
   - 5.2073419947109518e+09 nt_5_10 - 1.673277447931735e+09 nt_5_11
   - 3.2866513078618531e+09 nt_5_12 - 4.831550806044323e+09 nt_5_13
   - 3.3591393715265293e+09 nt_5_14 - 4.1220927340424895e+09 nt_6_7
   - 2.5189394240590386e+09 nt_6_8 - 2.3212146957174368e+09 nt_6_9
   - 3.174615310209785e+09 nt_6_10 - 4.7270414553994846e+09 nt_6_11
   - 2.5784983615585732e+09 nt_6_12 - 3.7543012559368777e+09 nt_6_13
   - 3.0762075852311983e+09 nt_6_14 - 3.6888219940248666e+09 nt_7_8
   - 4.8953782177557421e+09 nt_7_9 - 1.3604281411656876e+09 nt_7_10
   - 6.9245924679510994e+09 nt_7_11 - 2.1498916358061442e+09 nt_7_12
   - 6.2972511270016789e+08 nt_7_13 - 7.1138662680854225e+09 nt_7_14
   - 1.3751713009508142e+09 nt_8_9 - 3.6030296097993298e+09 nt_8_10
   - 3.2615251024991088e+09 nt_8_11 - 1.5562116685292356e+09 nt_8_12
   - 3.0800628057004967e+09 nt_8_13 - 4.3064640963788052e+09 nt_8_14
   - 4.5354616263568535e+09 nt_9_10 - 2.4500371200469294e+09 nt_9_11
   - 2.7557551111983514e+09 nt_9_12 - 4.3199523868375406e+09 nt_9_13
   - 3.0631221354373312e+09 nt_9_14 - 6.8296209250967646e+09 nt_10_11
   - 2.137596100219312e+09 nt_10_12 - 1.4914660695139902e+09 nt_10_13
   - 6.2496222014098015e+09 nt_10_14 - 4.8159072437295656e+09 nt_11_12
   - 6.3031628319933624e+09 nt_11_13 - 4.126855280110765e+09 nt_11_14
   - 1.5642059707576003e+09 nt_12_13 - 5.2408138546221285e+09 nt_12_14
   - 6.6675240322895622e+09 nt_13_14 - 4.5e+06 nv_1_2 - 4.5e+06 nv_1_3
   - 4.5e+06 nv_1_4 - 4.5e+06 nv_1_5 - 4.5e+06 nv_1_6 - 4.5e+06 nv_1_7
   - 4.5e+06 nv_1_8 - 4.5e+06 nv_1_9 - 4.5e+06 nv_1_10 - 4.5e+06 nv_1_11
   - 4.5e+06 nv_1_12 - 4.5e+06 nv_1_13 - 4.5e+06 nv_1_14 - 4.5e+06 nv_2_3
   - 4.5e+06 nv_2_4 - 4.5e+06 nv_2_5 - 4.5e+06 nv_2_6 - 4.5e+06 nv_2_7
   - 4.5e+06 nv_2_8 - 4.5e+06 nv_2_9 - 4.5e+06 nv_2_10 - 4.5e+06 nv_2_11
   - 4.5e+06 nv_2_12 - 4.5e+06 nv_2_13 - 4.5e+06 nv_2_14 - 4.5e+06 nv_3_4
   - 4.5e+06 nv_3_5 - 4.5e+06 nv_3_6 - 4.5e+06 nv_3_7 - 4.5e+06 nv_3_8
   - 4.5e+06 nv_3_9 - 4.5e+06 nv_3_10 - 4.5e+06 nv_3_11 - 4.5e+06 nv_3_12
   - 4.5e+06 nv_3_13 - 4.5e+06 nv_3_14 - 4.5e+06 nv_4_5 - 4.5e+06 nv_4_6
   - 4.5e+06 nv_4_7 - 4.5e+06 nv_4_8 - 4.5e+06 nv_4_9 - 4.5e+06 nv_4_10
   - 4.5e+06 nv_4_11 - 4.5e+06 nv_4_12 - 4.5e+06 nv_4_13 - 4.5e+06 nv_4_14
   - 4.5e+06 nv_5_6 - 4.5e+06 nv_5_7 - 4.5e+06 nv_5_8 - 4.5e+06 nv_5_9
   - 4.5e+06 nv_5_10 - 4.5e+06 nv_5_11 - 4.5e+06 nv_5_12 - 4.5e+06 nv_5_13
   - 4.5e+06 nv_5_14 - 4.5e+06 nv_6_7 - 4.5e+06 nv_6_8 - 4.5e+06 nv_6_9
   - 4.5e+06 nv_6_10 - 4.5e+06 nv_6_11 - 4.5e+06 nv_6_12 - 4.5e+06 nv_6_13
   - 4.5e+06 nv_6_14 - 4.5e+06 nv_7_8 - 4.5e+06 nv_7_9 - 4.5e+06 nv_7_10
   - 4.5e+06 nv_7_11 - 4.5e+06 nv_7_12 - 4.5e+06 nv_7_13 - 4.5e+06 nv_7_14
   - 4.5e+06 nv_8_9 - 4.5e+06 nv_8_10 - 4.5e+06 nv_8_11 - 4.5e+06 nv_8_12
   - 4.5e+06 nv_8_13 - 4.5e+06 nv_8_14 - 4.5e+06 nv_9_10 - 4.5e+06 nv_9_11
   - 4.5e+06 nv_9_12 - 4.5e+06 nv_9_13 - 4.5e+06 nv_9_14 - 4.5e+06 nv_10_11
   - 4.5e+06 nv_10_12 - 4.5e+06 nv_10_13 - 4.5e+06 nv_10_14
   - 4.5e+06 nv_11_12 - 4.5e+06 nv_11_13 - 4.5e+06 nv_11_14
   - 4.5e+06 nv_12_13 - 4.5e+06 nv_12_14 - 4.5e+06 nv_13_14
Subject To
 max_tubes_1_2: - 5 x_1_2 + nt_1_2 <= 0
 max_tubes_1_3: - 5 x_1_3 + nt_1_3 <= 0
 max_tubes_1_4: - 4 x_1_4 + nt_1_4 <= 0
 max_tubes_1_5: - 3 x_1_5 + nt_1_5 <= 0
 max_tubes_1_6: - 5 x_1_6 + nt_1_6 <= 0
 max_tubes_1_7: - 9 x_1_7 + nt_1_7 <= 0
 max_tubes_1_8: - 8 x_1_8 + nt_1_8 <= 0
 max_tubes_1_9: - 3 x_1_9 + nt_1_9 <= 0
 max_tubes_1_10: - 5 x_1_10 + nt_1_10 <= 0
 max_tubes_1_11: - 2 x_1_11 + nt_1_11 <= 0
 max_tubes_1_12: - 2 x_1_12 + nt_1_12 <= 0
 max_tubes_1_13: - 5 x_1_13 + nt_1_13 <= 0
 max_tubes_1_14: - 5 x_1_14 + nt_1_14 <= 0
 max_tubes_2_3: - 7 x_2_3 + nt_2_3 <= 0
 max_tubes_2_4: - 6 x_2_4 + nt_2_4 <= 0
 max_tubes_2_5: - 7 x_2_5 + nt_2_5 <= 0
 max_tubes_2_6: - 6 x_2_6 + nt_2_6 <= 0
 max_tubes_2_7: - 6 x_2_7 + nt_2_7 <= 0
 max_tubes_2_8: - 3 x_2_8 + nt_2_8 <= 0
 max_tubes_2_9: - 9 x_2_9 + nt_2_9 <= 0
 max_tubes_2_10: - 3 x_2_10 + nt_2_10 <= 0
 max_tubes_2_11: - 3 x_2_11 + nt_2_11 <= 0
 max_tubes_2_12: - 7 x_2_12 + nt_2_12 <= 0
 max_tubes_2_13: - 3 x_2_13 + nt_2_13 <= 0
 max_tubes_2_14: - 5 x_2_14 + nt_2_14 <= 0
 max_tubes_3_4: - 5 x_3_4 + nt_3_4 <= 0
 max_tubes_3_5: - 8 x_3_5 + nt_3_5 <= 0
 max_tubes_3_6: - 7 x_3_6 + nt_3_6 <= 0
 max_tubes_3_7: - 7 x_3_7 + nt_3_7 <= 0
 max_tubes_3_8: - 8 x_3_8 + nt_3_8 <= 0
 max_tubes_3_9: - 9 x_3_9 + nt_3_9 <= 0
 max_tubes_3_10: - 9 x_3_10 + nt_3_10 <= 0
 max_tubes_3_11: - 4 x_3_11 + nt_3_11 <= 0
 max_tubes_3_12: - 6 x_3_12 + nt_3_12 <= 0
 max_tubes_3_13: - 7 x_3_13 + nt_3_13 <= 0
 max_tubes_3_14: - 2 x_3_14 + nt_3_14 <= 0
 max_tubes_4_5: - 5 x_4_5 + nt_4_5 <= 0
 max_tubes_4_6: - 2 x_4_6 + nt_4_6 <= 0
 max_tubes_4_7: - 2 x_4_7 + nt_4_7 <= 0
 max_tubes_4_8: - 9 x_4_8 + nt_4_8 <= 0
 max_tubes_4_9: - 3 x_4_9 + nt_4_9 <= 0
 max_tubes_4_10: - 2 x_4_10 + nt_4_10 <= 0
 max_tubes_4_11: - 3 x_4_11 + nt_4_11 <= 0
 max_tubes_4_12: - 5 x_4_12 + nt_4_12 <= 0
 max_tubes_4_13: - 7 x_4_13 + nt_4_13 <= 0
 max_tubes_4_14: - 6 x_4_14 + nt_4_14 <= 0
 max_tubes_5_6: - 9 x_5_6 + nt_5_6 <= 0
 max_tubes_5_7: - 5 x_5_7 + nt_5_7 <= 0
 max_tubes_5_8: - 2 x_5_8 + nt_5_8 <= 0
 max_tubes_5_9: - 7 x_5_9 + nt_5_9 <= 0
 max_tubes_5_10: - 4 x_5_10 + nt_5_10 <= 0
 max_tubes_5_11: - 4 x_5_11 + nt_5_11 <= 0
 max_tubes_5_12: - 7 x_5_12 + nt_5_12 <= 0
 max_tubes_5_13: - 4 x_5_13 + nt_5_13 <= 0
 max_tubes_5_14: - 8 x_5_14 + nt_5_14 <= 0
 max_tubes_6_7: - 4 x_6_7 + nt_6_7 <= 0
 max_tubes_6_8: - 2 x_6_8 + nt_6_8 <= 0
 max_tubes_6_9: - 8 x_6_9 + nt_6_9 <= 0
 max_tubes_6_10: - 8 x_6_10 + nt_6_10 <= 0
 max_tubes_6_11: - 7 x_6_11 + nt_6_11 <= 0
 max_tubes_6_12: - 8 x_6_12 + nt_6_12 <= 0
 max_tubes_6_13: - 8 x_6_13 + nt_6_13 <= 0
 max_tubes_6_14: - 5 x_6_14 + nt_6_14 <= 0
 max_tubes_7_8: - 6 x_7_8 + nt_7_8 <= 0
 max_tubes_7_9: - 7 x_7_9 + nt_7_9 <= 0
 max_tubes_7_10: - 8 x_7_10 + nt_7_10 <= 0
 max_tubes_7_11: - 4 x_7_11 + nt_7_11 <= 0
 max_tubes_7_12: - 8 x_7_12 + nt_7_12 <= 0
 max_tubes_7_13: - 6 x_7_13 + nt_7_13 <= 0
 max_tubes_7_14: - 2 x_7_14 + nt_7_14 <= 0
 max_tubes_8_9: - 9 x_8_9 + nt_8_9 <= 0
 max_tubes_8_10: - 2 x_8_10 + nt_8_10 <= 0
 max_tubes_8_11: - 3 x_8_11 + nt_8_11 <= 0
 max_tubes_8_12: - 7 x_8_12 + nt_8_12 <= 0
 max_tubes_8_13: - 8 x_8_13 + nt_8_13 <= 0
 max_tubes_8_14: - 7 x_8_14 + nt_8_14 <= 0
 max_tubes_9_10: - 9 x_9_10 + nt_9_10 <= 0
 max_tubes_9_11: - 4 x_9_11 + nt_9_11 <= 0
 max_tubes_9_12: - 2 x_9_12 + nt_9_12 <= 0
 max_tubes_9_13: - 6 x_9_13 + nt_9_13 <= 0
 max_tubes_9_14: - 3 x_9_14 + nt_9_14 <= 0
 max_tubes_10_11: - 3 x_10_11 + nt_10_11 <= 0
 max_tubes_10_12: - 5 x_10_12 + nt_10_12 <= 0
 max_tubes_10_13: - 3 x_10_13 + nt_10_13 <= 0
 max_tubes_10_14: - 8 x_10_14 + nt_10_14 <= 0
 max_tubes_11_12: - 3 x_11_12 + nt_11_12 <= 0
 max_tubes_11_13: - 2 x_11_13 + nt_11_13 <= 0
 max_tubes_11_14: - 7 x_11_14 + nt_11_14 <= 0
 max_tubes_12_13: - 4 x_12_13 + nt_12_13 <= 0
 max_tubes_12_14: - 9 x_12_14 + nt_12_14 <= 0
 max_tubes_13_14: - 3 x_13_14 + nt_13_14 <= 0
 max_vehicles_1_2: - 2 nt_1_2 + nv_1_2 <= 0
 max_vehicles_1_3: - 2 nt_1_3 + nv_1_3 <= 0
 max_vehicles_1_4: - 2 nt_1_4 + nv_1_4 <= 0
 max_vehicles_1_5: - 2 nt_1_5 + nv_1_5 <= 0
 max_vehicles_1_6: - 2 nt_1_6 + nv_1_6 <= 0
 max_vehicles_1_7: - 2 nt_1_7 + nv_1_7 <= 0
 max_vehicles_1_8: - 2 nt_1_8 + nv_1_8 <= 0
 max_vehicles_1_9: - 2 nt_1_9 + nv_1_9 <= 0
 max_vehicles_1_10: - 2 nt_1_10 + nv_1_10 <= 0
 max_vehicles_1_11: - 2 nt_1_11 + nv_1_11 <= 0
 max_vehicles_1_12: - 2 nt_1_12 + nv_1_12 <= 0
 max_vehicles_1_13: - 2 nt_1_13 + nv_1_13 <= 0
 max_vehicles_1_14: - 2 nt_1_14 + nv_1_14 <= 0
 max_vehicles_2_3: - 2 nt_2_3 + nv_2_3 <= 0
 max_vehicles_2_4: - 2 nt_2_4 + nv_2_4 <= 0
 max_vehicles_2_5: - 2 nt_2_5 + nv_2_5 <= 0
 max_vehicles_2_6: - 2 nt_2_6 + nv_2_6 <= 0
 max_vehicles_2_7: - 2 nt_2_7 + nv_2_7 <= 0
 max_vehicles_2_8: - 2 nt_2_8 + nv_2_8 <= 0
 max_vehicles_2_9: - 2 nt_2_9 + nv_2_9 <= 0
 max_vehicles_2_10: - 2 nt_2_10 + nv_2_10 <= 0
 max_vehicles_2_11: - 2 nt_2_11 + nv_2_11 <= 0
 max_vehicles_2_12: - 2 nt_2_12 + nv_2_12 <= 0
 max_vehicles_2_13: - 2 nt_2_13 + nv_2_13 <= 0
 max_vehicles_2_14: - 2 nt_2_14 + nv_2_14 <= 0
 max_vehicles_3_4: - 2 nt_3_4 + nv_3_4 <= 0
 max_vehicles_3_5: - 2 nt_3_5 + nv_3_5 <= 0
 max_vehicles_3_6: - 2 nt_3_6 + nv_3_6 <= 0
 max_vehicles_3_7: - 2 nt_3_7 + nv_3_7 <= 0
 max_vehicles_3_8: - 2 nt_3_8 + nv_3_8 <= 0
 max_vehicles_3_9: - 2 nt_3_9 + nv_3_9 <= 0
 max_vehicles_3_10: - 2 nt_3_10 + nv_3_10 <= 0
 max_vehicles_3_11: - 2 nt_3_11 + nv_3_11 <= 0
 max_vehicles_3_12: - 2 nt_3_12 + nv_3_12 <= 0
 max_vehicles_3_13: - 2 nt_3_13 + nv_3_13 <= 0
 max_vehicles_3_14: - 2 nt_3_14 + nv_3_14 <= 0
 max_vehicles_4_5: - 2 nt_4_5 + nv_4_5 <= 0
 max_vehicles_4_6: - 2 nt_4_6 + nv_4_6 <= 0
 max_vehicles_4_7: - 2 nt_4_7 + nv_4_7 <= 0
 max_vehicles_4_8: - 2 nt_4_8 + nv_4_8 <= 0
 max_vehicles_4_9: - 2 nt_4_9 + nv_4_9 <= 0
 max_vehicles_4_10: - 2 nt_4_10 + nv_4_10 <= 0
 max_vehicles_4_11: - 2 nt_4_11 + nv_4_11 <= 0
 max_vehicles_4_12: - 2 nt_4_12 + nv_4_12 <= 0
 max_vehicles_4_13: - 2 nt_4_13 + nv_4_13 <= 0
 max_vehicles_4_14: - 2 nt_4_14 + nv_4_14 <= 0
 max_vehicles_5_6: - 2 nt_5_6 + nv_5_6 <= 0
 max_vehicles_5_7: - 2 nt_5_7 + nv_5_7 <= 0
 max_vehicles_5_8: - 2 nt_5_8 + nv_5_8 <= 0
 max_vehicles_5_9: - 2 nt_5_9 + nv_5_9 <= 0
 max_vehicles_5_10: - 2 nt_5_10 + nv_5_10 <= 0
 max_vehicles_5_11: - 2 nt_5_11 + nv_5_11 <= 0
 max_vehicles_5_12: - 2 nt_5_12 + nv_5_12 <= 0
 max_vehicles_5_13: - 2 nt_5_13 + nv_5_13 <= 0
 max_vehicles_5_14: - 2 nt_5_14 + nv_5_14 <= 0
 max_vehicles_6_7: - 2 nt_6_7 + nv_6_7 <= 0
 max_vehicles_6_8: - 2 nt_6_8 + nv_6_8 <= 0
 max_vehicles_6_9: - 2 nt_6_9 + nv_6_9 <= 0
 max_vehicles_6_10: - 2 nt_6_10 + nv_6_10 <= 0
 max_vehicles_6_11: - 2 nt_6_11 + nv_6_11 <= 0
 max_vehicles_6_12: - 2 nt_6_12 + nv_6_12 <= 0
 max_vehicles_6_13: - 2 nt_6_13 + nv_6_13 <= 0
 max_vehicles_6_14: - 2 nt_6_14 + nv_6_14 <= 0
 max_vehicles_7_8: - 2 nt_7_8 + nv_7_8 <= 0
 max_vehicles_7_9: - 2 nt_7_9 + nv_7_9 <= 0
 max_vehicles_7_10: - 2 nt_7_10 + nv_7_10 <= 0
 max_vehicles_7_11: - 2 nt_7_11 + nv_7_11 <= 0
 max_vehicles_7_12: - 2 nt_7_12 + nv_7_12 <= 0
 max_vehicles_7_13: - 2 nt_7_13 + nv_7_13 <= 0
 max_vehicles_7_14: - 2 nt_7_14 + nv_7_14 <= 0
 max_vehicles_8_9: - 2 nt_8_9 + nv_8_9 <= 0
 max_vehicles_8_10: - 2 nt_8_10 + nv_8_10 <= 0
 max_vehicles_8_11: - 2 nt_8_11 + nv_8_11 <= 0
 max_vehicles_8_12: - 2 nt_8_12 + nv_8_12 <= 0
 max_vehicles_8_13: - 2 nt_8_13 + nv_8_13 <= 0
 max_vehicles_8_14: - 2 nt_8_14 + nv_8_14 <= 0
 max_vehicles_9_10: - 2 nt_9_10 + nv_9_10 <= 0
 max_vehicles_9_11: - 2 nt_9_11 + nv_9_11 <= 0
 max_vehicles_9_12: - 2 nt_9_12 + nv_9_12 <= 0
 max_vehicles_9_13: - 2 nt_9_13 + nv_9_13 <= 0
 max_vehicles_9_14: - 2 nt_9_14 + nv_9_14 <= 0
 max_vehicles_10_11: - 2 nt_10_11 + nv_10_11 <= 0
 max_vehicles_10_12: - 2 nt_10_12 + nv_10_12 <= 0
 max_vehicles_10_13: - 2 nt_10_13 + nv_10_13 <= 0
 max_vehicles_10_14: - 2 nt_10_14 + nv_10_14 <= 0
 max_vehicles_11_12: - 2 nt_11_12 + nv_11_12 <= 0
 max_vehicles_11_13: - 2 nt_11_13 + nv_11_13 <= 0
 max_vehicles_11_14: - 2 nt_11_14 + nv_11_14 <= 0
 max_vehicles_12_13: - 2 nt_12_13 + nv_12_13 <= 0
 max_vehicles_12_14: - 2 nt_12_14 + nv_12_14 <= 0
 max_vehicles_13_14: - 2 nt_13_14 + nv_13_14 <= 0
 max_passengers_1_2: pax_1_2 - 50 nv_1_2 <= 0
 max_passengers_1_3: pax_1_3 - 50 nv_1_3 <= 0
 max_passengers_1_4: pax_1_4 - 50 nv_1_4 <= 0
 max_passengers_1_5: pax_1_5 - 50 nv_1_5 <= 0
 max_passengers_1_6: pax_1_6 - 50 nv_1_6 <= 0
 max_passengers_1_7: pax_1_7 - 50 nv_1_7 <= 0
 max_passengers_1_8: pax_1_8 - 50 nv_1_8 <= 0
 max_passengers_1_9: pax_1_9 - 50 nv_1_9 <= 0
 max_passengers_1_10: pax_1_10 - 50 nv_1_10 <= 0
 max_passengers_1_11: pax_1_11 - 50 nv_1_11 <= 0
 max_passengers_1_12: pax_1_12 - 50 nv_1_12 <= 0
 max_passengers_1_13: pax_1_13 - 50 nv_1_13 <= 0
 max_passengers_1_14: pax_1_14 - 50 nv_1_14 <= 0
 max_passengers_2_3: pax_2_3 - 50 nv_2_3 <= 0
 max_passengers_2_4: pax_2_4 - 50 nv_2_4 <= 0
 max_passengers_2_5: pax_2_5 - 50 nv_2_5 <= 0
 max_passengers_2_6: pax_2_6 - 50 nv_2_6 <= 0
 max_passengers_2_7: pax_2_7 - 50 nv_2_7 <= 0
 max_passengers_2_8: pax_2_8 - 50 nv_2_8 <= 0
 max_passengers_2_9: pax_2_9 - 50 nv_2_9 <= 0
 max_passengers_2_10: pax_2_10 - 50 nv_2_10 <= 0
 max_passengers_2_11: pax_2_11 - 50 nv_2_11 <= 0
 max_passengers_2_12: pax_2_12 - 50 nv_2_12 <= 0
 max_passengers_2_13: pax_2_13 - 50 nv_2_13 <= 0
 max_passengers_2_14: pax_2_14 - 50 nv_2_14 <= 0
 max_passengers_3_4: pax_3_4 - 50 nv_3_4 <= 0
 max_passengers_3_5: pax_3_5 - 50 nv_3_5 <= 0
 max_passengers_3_6: pax_3_6 - 50 nv_3_6 <= 0
 max_passengers_3_7: pax_3_7 - 50 nv_3_7 <= 0
 max_passengers_3_8: pax_3_8 - 50 nv_3_8 <= 0
 max_passengers_3_9: pax_3_9 - 50 nv_3_9 <= 0
 max_passengers_3_10: pax_3_10 - 50 nv_3_10 <= 0
 max_passengers_3_11: pax_3_11 - 50 nv_3_11 <= 0
 max_passengers_3_12: pax_3_12 - 50 nv_3_12 <= 0
 max_passengers_3_13: pax_3_13 - 50 nv_3_13 <= 0
 max_passengers_3_14: pax_3_14 - 50 nv_3_14 <= 0
 max_passengers_4_5: pax_4_5 - 50 nv_4_5 <= 0
 max_passengers_4_6: pax_4_6 - 50 nv_4_6 <= 0
 max_passengers_4_7: pax_4_7 - 50 nv_4_7 <= 0
 max_passengers_4_8: pax_4_8 - 50 nv_4_8 <= 0
 max_passengers_4_9: pax_4_9 - 50 nv_4_9 <= 0
 max_passengers_4_10: pax_4_10 - 50 nv_4_10 <= 0
 max_passengers_4_11: pax_4_11 - 50 nv_4_11 <= 0
 max_passengers_4_12: pax_4_12 - 50 nv_4_12 <= 0
 max_passengers_4_13: pax_4_13 - 50 nv_4_13 <= 0
 max_passengers_4_14: pax_4_14 - 50 nv_4_14 <= 0
 max_passengers_5_6: pax_5_6 - 50 nv_5_6 <= 0
 max_passengers_5_7: pax_5_7 - 50 nv_5_7 <= 0
 max_passengers_5_8: pax_5_8 - 50 nv_5_8 <= 0
 max_passengers_5_9: pax_5_9 - 50 nv_5_9 <= 0
 max_passengers_5_10: pax_5_10 - 50 nv_5_10 <= 0
 max_passengers_5_11: pax_5_11 - 50 nv_5_11 <= 0
 max_passengers_5_12: pax_5_12 - 50 nv_5_12 <= 0
 max_passengers_5_13: pax_5_13 - 50 nv_5_13 <= 0
 max_passengers_5_14: pax_5_14 - 50 nv_5_14 <= 0
 max_passengers_6_7: pax_6_7 - 50 nv_6_7 <= 0
 max_passengers_6_8: pax_6_8 - 50 nv_6_8 <= 0
 max_passengers_6_9: pax_6_9 - 50 nv_6_9 <= 0
 max_passengers_6_10: pax_6_10 - 50 nv_6_10 <= 0
 max_passengers_6_11: pax_6_11 - 50 nv_6_11 <= 0
 max_passengers_6_12: pax_6_12 - 50 nv_6_12 <= 0
 max_passengers_6_13: pax_6_13 - 50 nv_6_13 <= 0
 max_passengers_6_14: pax_6_14 - 50 nv_6_14 <= 0
 max_passengers_7_8: pax_7_8 - 50 nv_7_8 <= 0
 max_passengers_7_9: pax_7_9 - 50 nv_7_9 <= 0
 max_passengers_7_10: pax_7_10 - 50 nv_7_10 <= 0
 max_passengers_7_11: pax_7_11 - 50 nv_7_11 <= 0
 max_passengers_7_12: pax_7_12 - 50 nv_7_12 <= 0
 max_passengers_7_13: pax_7_13 - 50 nv_7_13 <= 0
 max_passengers_7_14: pax_7_14 - 50 nv_7_14 <= 0
 max_passengers_8_9: pax_8_9 - 50 nv_8_9 <= 0
 max_passengers_8_10: pax_8_10 - 50 nv_8_10 <= 0
 max_passengers_8_11: pax_8_11 - 50 nv_8_11 <= 0
 max_passengers_8_12: pax_8_12 - 50 nv_8_12 <= 0
 max_passengers_8_13: pax_8_13 - 50 nv_8_13 <= 0
 max_passengers_8_14: pax_8_14 - 50 nv_8_14 <= 0
 max_passengers_9_10: pax_9_10 - 50 nv_9_10 <= 0
 max_passengers_9_11: pax_9_11 - 50 nv_9_11 <= 0
 max_passengers_9_12: pax_9_12 - 50 nv_9_12 <= 0
 max_passengers_9_13: pax_9_13 - 50 nv_9_13 <= 0
 max_passengers_9_14: pax_9_14 - 50 nv_9_14 <= 0
 max_passengers_10_11: pax_10_11 - 50 nv_10_11 <= 0
 max_passengers_10_12: pax_10_12 - 50 nv_10_12 <= 0
 max_passengers_10_13: pax_10_13 - 50 nv_10_13 <= 0
 max_passengers_10_14: pax_10_14 - 50 nv_10_14 <= 0
 max_passengers_11_12: pax_11_12 - 50 nv_11_12 <= 0
 max_passengers_11_13: pax_11_13 - 50 nv_11_13 <= 0
 max_passengers_11_14: pax_11_14 - 50 nv_11_14 <= 0
 max_passengers_12_13: pax_12_13 - 50 nv_12_13 <= 0
 max_passengers_12_14: pax_12_14 - 50 nv_12_14 <= 0
 max_passengers_13_14: pax_13_14 - 50 nv_13_14 <= 0
 node_connected_1: - x_1_2 - x_1_3 - x_1_4 - x_1_5 - x_1_6 - x_1_7 - x_1_8
   - x_1_9 - x_1_10 - x_1_11 - x_1_12 - x_1_13 - x_1_14 <= -1
 node_connected_2: - x_1_2 - x_2_3 - x_2_4 - x_2_5 - x_2_6 - x_2_7 - x_2_8
   - x_2_9 - x_2_10 - x_2_11 - x_2_12 - x_2_13 - x_2_14 <= -1
 node_connected_3: - x_1_3 - x_2_3 - x_3_4 - x_3_5 - x_3_6 - x_3_7 - x_3_8
   - x_3_9 - x_3_10 - x_3_11 - x_3_12 - x_3_13 - x_3_14 <= -1
 node_connected_4: - x_1_4 - x_2_4 - x_3_4 - x_4_5 - x_4_6 - x_4_7 - x_4_8
   - x_4_9 - x_4_10 - x_4_11 - x_4_12 - x_4_13 - x_4_14 <= -1
 node_connected_5: - x_1_5 - x_2_5 - x_3_5 - x_4_5 - x_5_6 - x_5_7 - x_5_8
   - x_5_9 - x_5_10 - x_5_11 - x_5_12 - x_5_13 - x_5_14 <= -1
 node_connected_6: - x_1_6 - x_2_6 - x_3_6 - x_4_6 - x_5_6 - x_6_7 - x_6_8
   - x_6_9 - x_6_10 - x_6_11 - x_6_12 - x_6_13 - x_6_14 <= -1
 node_connected_7: - x_1_7 - x_2_7 - x_3_7 - x_4_7 - x_5_7 - x_6_7 - x_7_8
   - x_7_9 - x_7_10 - x_7_11 - x_7_12 - x_7_13 - x_7_14 <= -1
 node_connected_8: - x_1_8 - x_2_8 - x_3_8 - x_4_8 - x_5_8 - x_6_8 - x_7_8
   - x_8_9 - x_8_10 - x_8_11 - x_8_12 - x_8_13 - x_8_14 <= -1
 node_connected_9: - x_1_9 - x_2_9 - x_3_9 - x_4_9 - x_5_9 - x_6_9 - x_7_9
   - x_8_9 - x_9_10 - x_9_11 - x_9_12 - x_9_13 - x_9_14 <= -1
 node_connected_10: - x_1_10 - x_2_10 - x_3_10 - x_4_10 - x_5_10 - x_6_10
   - x_7_10 - x_8_10 - x_9_10 - x_10_11 - x_10_12 - x_10_13 - x_10_14
   <= -1
 node_connected_11: - x_1_11 - x_2_11 - x_3_11 - x_4_11 - x_5_11 - x_6_11
   - x_7_11 - x_8_11 - x_9_11 - x_10_11 - x_11_12 - x_11_13 - x_11_14
   <= -1
 node_connected_12: - x_1_12 - x_2_12 - x_3_12 - x_4_12 - x_5_12 - x_6_12
   - x_7_12 - x_8_12 - x_9_12 - x_10_12 - x_11_12 - x_12_13 - x_12_14
   <= -1
 node_connected_13: - x_1_13 - x_2_13 - x_3_13 - x_4_13 - x_5_13 - x_6_13
   - x_7_13 - x_8_13 - x_9_13 - x_10_13 - x_11_13 - x_12_13 - x_13_14
   <= -1
 node_connected_14: - x_1_14 - x_2_14 - x_3_14 - x_4_14 - x_5_14 - x_6_14
   - x_7_14 - x_8_14 - x_9_14 - x_10_14 - x_11_14 - x_12_14 - x_13_14
   <= -1
 min_amount_links: x_1_2 + x_1_3 + x_1_4 + x_1_5 + x_1_6 + x_1_7 + x_1_8
   + x_1_9 + x_1_10 + x_1_11 + x_1_12 + x_1_13 + x_1_14 + x_2_3 + x_2_4
   + x_2_5 + x_2_6 + x_2_7 + x_2_8 + x_2_9 + x_2_10 + x_2_11 + x_2_12
   + x_2_13 + x_2_14 + x_3_4 + x_3_5 + x_3_6 + x_3_7 + x_3_8 + x_3_9
   + x_3_10 + x_3_11 + x_3_12 + x_3_13 + x_3_14 + x_4_5 + x_4_6 + x_4_7
   + x_4_8 + x_4_9 + x_4_10 + x_4_11 + x_4_12 + x_4_13 + x_4_14 + x_5_6
   + x_5_7 + x_5_8 + x_5_9 + x_5_10 + x_5_11 + x_5_12 + x_5_13 + x_5_14
   + x_6_7 + x_6_8 + x_6_9 + x_6_10 + x_6_11 + x_6_12 + x_6_13 + x_6_14
   + x_7_8 + x_7_9 + x_7_10 + x_7_11 + x_7_12 + x_7_13 + x_7_14 + x_8_9
   + x_8_10 + x_8_11 + x_8_12 + x_8_13 + x_8_14 + x_9_10 + x_9_11 + x_9_12
   + x_9_13 + x_9_14 + x_10_11 + x_10_12 + x_10_13 + x_10_14 + x_11_12
   + x_11_13 + x_11_14 + x_12_13 + x_12_14 + x_13_14 = 13
Bounds
 pax_1_2 <= 2.437e+06
 pax_1_3 <= 2.411e+06
 pax_1_4 <= 2.046e+06
 pax_1_5 <= 1.804053e+06
 pax_1_6 <= 1.755957e+06
 pax_1_7 <= 1.622688e+06
 pax_1_8 <= 1.547674e+06
 pax_1_9 <= 1.54052e+06
 pax_1_10 <= 1.531778e+06
 pax_1_11 <= 1.528378e+06
 pax_1_12 <= 1.517805e+06
 pax_1_13 <= 1.468237e+06
 pax_1_14 <= 1.452485e+06
 pax_2_3 <= 2.036e+06
 pax_2_4 <= 1.671e+06
 pax_2_5 <= 1.429053e+06
 pax_2_6 <= 1.380957e+06
 pax_2_7 <= 1.247688e+06
 pax_2_8 <= 1.172674e+06
 pax_2_9 <= 1.16552e+06
 pax_2_10 <= 1.156778e+06
 pax_2_11 <= 1.153378e+06
 pax_2_12 <= 1.142805e+06
 pax_2_13 <= 1.093237e+06
 pax_2_14 <= 1.077485e+06
 pax_3_4 <= 1.645e+06
 pax_3_5 <= 1.403053e+06
 pax_3_6 <= 1.354957e+06
 pax_3_7 <= 1.221688e+06
 pax_3_8 <= 1.146674e+06
 pax_3_9 <= 1.13952e+06
 pax_3_10 <= 1.130778e+06
 pax_3_11 <= 1.127378e+06
 pax_3_12 <= 1.116805e+06
 pax_3_13 <= 1.067237e+06
 pax_3_14 <= 1.051485e+06
 pax_4_5 <= 1.038053e+06
 pax_4_6 <= 989957
 pax_4_7 <= 856688
 pax_4_8 <= 781674
 pax_4_9 <= 774520
 pax_4_10 <= 765778
 pax_4_11 <= 762378
 pax_4_12 <= 751805
 pax_4_13 <= 702237
 pax_4_14 <= 686485
 pax_5_6 <= 748010
 pax_5_7 <= 614741
 pax_5_8 <= 539727
 pax_5_9 <= 532573
 pax_5_10 <= 523831
 pax_5_11 <= 520431
 pax_5_12 <= 509858
 pax_5_13 <= 460290
 pax_5_14 <= 444538
 pax_6_7 <= 566645
 pax_6_8 <= 491631
 pax_6_9 <= 484477
 pax_6_10 <= 475735
 pax_6_11 <= 472335
 pax_6_12 <= 461762
 pax_6_13 <= 412194
 pax_6_14 <= 396442
 pax_7_8 <= 358362
 pax_7_9 <= 351208
 pax_7_10 <= 342466
 pax_7_11 <= 339066
 pax_7_12 <= 328493
 pax_7_13 <= 278925
 pax_7_14 <= 263173
 pax_8_9 <= 276194
 pax_8_10 <= 267452
 pax_8_11 <= 264052
 pax_8_12 <= 253479
 pax_8_13 <= 203911
 pax_8_14 <= 188159
 pax_9_10 <= 260298
 pax_9_11 <= 256898
 pax_9_12 <= 246325
 pax_9_13 <= 196757
 pax_9_14 <= 181005
 pax_10_11 <= 248156
 pax_10_12 <= 237583
 pax_10_13 <= 188015
 pax_10_14 <= 172263
 pax_11_12 <= 234183
 pax_11_13 <= 184615
 pax_11_14 <= 168863
 pax_12_13 <= 174042
 pax_12_14 <= 158290
 pax_13_14 <= 108722
Binaries
 x_1_2 x_1_3 x_1_4 x_1_5 x_1_6 x_1_7 x_1_8 x_1_9 x_1_10 x_1_11 x_1_12
 x_1_13 x_1_14 x_2_3 x_2_4 x_2_5 x_2_6 x_2_7 x_2_8 x_2_9 x_2_10 x_2_11
 x_2_12 x_2_13 x_2_14 x_3_4 x_3_5 x_3_6 x_3_7 x_3_8 x_3_9 x_3_10 x_3_11
 x_3_12 x_3_13 x_3_14 x_4_5 x_4_6 x_4_7 x_4_8 x_4_9 x_4_10 x_4_11 x_4_12
 x_4_13 x_4_14 x_5_6 x_5_7 x_5_8 x_5_9 x_5_10 x_5_11 x_5_12 x_5_13 x_5_14
 x_6_7 x_6_8 x_6_9 x_6_10 x_6_11 x_6_12 x_6_13 x_6_14 x_7_8 x_7_9 x_7_10
 x_7_11 x_7_12 x_7_13 x_7_14 x_8_9 x_8_10 x_8_11 x_8_12 x_8_13 x_8_14
 x_9_10 x_9_11 x_9_12 x_9_13 x_9_14 x_10_11 x_10_12 x_10_13 x_10_14 x_11_12
 x_11_13 x_11_14 x_12_13 x_12_14 x_13_14
Generals
 pax_1_2 pax_1_3 pax_1_4 pax_1_5 pax_1_6 pax_1_7 pax_1_8 pax_1_9 pax_1_10
 pax_1_11 pax_1_12 pax_1_13 pax_1_14 pax_2_3 pax_2_4 pax_2_5 pax_2_6
 pax_2_7 pax_2_8 pax_2_9 pax_2_10 pax_2_11 pax_2_12 pax_2_13 pax_2_14
 pax_3_4 pax_3_5 pax_3_6 pax_3_7 pax_3_8 pax_3_9 pax_3_10 pax_3_11 pax_3_12
 pax_3_13 pax_3_14 pax_4_5 pax_4_6 pax_4_7 pax_4_8 pax_4_9 pax_4_10
 pax_4_11 pax_4_12 pax_4_13 pax_4_14 pax_5_6 pax_5_7 pax_5_8 pax_5_9
 pax_5_10 pax_5_11 pax_5_12 pax_5_13 pax_5_14 pax_6_7 pax_6_8 pax_6_9
 pax_6_10 pax_6_11 pax_6_12 pax_6_13 pax_6_14 pax_7_8 pax_7_9 pax_7_10
 pax_7_11 pax_7_12 pax_7_13 pax_7_14 pax_8_9 pax_8_10 pax_8_11 pax_8_12
 pax_8_13 pax_8_14 pax_9_10 pax_9_11 pax_9_12 pax_9_13 pax_9_14 pax_10_11
 pax_10_12 pax_10_13 pax_10_14 pax_11_12 pax_11_13 pax_11_14 pax_12_13
 pax_12_14 pax_13_14 nt_1_2 nt_1_3 nt_1_4 nt_1_5 nt_1_6 nt_1_7 nt_1_8
 nt_1_9 nt_1_10 nt_1_11 nt_1_12 nt_1_13 nt_1_14 nt_2_3 nt_2_4 nt_2_5 nt_2_6
 nt_2_7 nt_2_8 nt_2_9 nt_2_10 nt_2_11 nt_2_12 nt_2_13 nt_2_14 nt_3_4 nt_3_5
 nt_3_6 nt_3_7 nt_3_8 nt_3_9 nt_3_10 nt_3_11 nt_3_12 nt_3_13 nt_3_14 nt_4_5
 nt_4_6 nt_4_7 nt_4_8 nt_4_9 nt_4_10 nt_4_11 nt_4_12 nt_4_13 nt_4_14 nt_5_6
 nt_5_7 nt_5_8 nt_5_9 nt_5_10 nt_5_11 nt_5_12 nt_5_13 nt_5_14 nt_6_7 nt_6_8
 nt_6_9 nt_6_10 nt_6_11 nt_6_12 nt_6_13 nt_6_14 nt_7_8 nt_7_9 nt_7_10
 nt_7_11 nt_7_12 nt_7_13 nt_7_14 nt_8_9 nt_8_10 nt_8_11 nt_8_12 nt_8_13
 nt_8_14 nt_9_10 nt_9_11 nt_9_12 nt_9_13 nt_9_14 nt_10_11 nt_10_12 nt_10_13
 nt_10_14 nt_11_12 nt_11_13 nt_11_14 nt_12_13 nt_12_14 nt_13_14 nv_1_2
 nv_1_3 nv_1_4 nv_1_5 nv_1_6 nv_1_7 nv_1_8 nv_1_9 nv_1_10 nv_1_11 nv_1_12
 nv_1_13 nv_1_14 nv_2_3 nv_2_4 nv_2_5 nv_2_6 nv_2_7 nv_2_8 nv_2_9 nv_2_10
 nv_2_11 nv_2_12 nv_2_13 nv_2_14 nv_3_4 nv_3_5 nv_3_6 nv_3_7 nv_3_8 nv_3_9
 nv_3_10 nv_3_11 nv_3_12 nv_3_13 nv_3_14 nv_4_5 nv_4_6 nv_4_7 nv_4_8 nv_4_9
 nv_4_10 nv_4_11 nv_4_12 nv_4_13 nv_4_14 nv_5_6 nv_5_7 nv_5_8 nv_5_9
 nv_5_10 nv_5_11 nv_5_12 nv_5_13 nv_5_14 nv_6_7 nv_6_8 nv_6_9 nv_6_10
 nv_6_11 nv_6_12 nv_6_13 nv_6_14 nv_7_8 nv_7_9 nv_7_10 nv_7_11 nv_7_12
 nv_7_13 nv_7_14 nv_8_9 nv_8_10 nv_8_11 nv_8_12 nv_8_13 nv_8_14 nv_9_10
 nv_9_11 nv_9_12 nv_9_13 nv_9_14 nv_10_11 nv_10_12 nv_10_13 nv_10_14
 nv_11_12 nv_11_13 nv_11_14 nv_12_13 nv_12_14 nv_13_14
End
